p cnf 12 50 
11 12 10 0
-2 10 12 0
1 3 -8 0
-3 2 -8 0
6 4 7 0
12 7 3 0
8 10 -1 0
3 -8 -10 0
2 4 11 0
1 -8 -6 0
-3 -12 -2 0
4 -8 10 0
-2 -6 9 0
-10 3 -11 0
1 12 -2 0
6 -5 -12 0
-3 7 -6 0
-9 -5 -1 0
-10 -12 2 0
9 -1 -12 0
-5 -1 -2 0
-5 -11 2 0
3 -2 10 0
11 -9 -12 0
9 12 -5 0
4 -12 11 0
4 6 10 0
-6 5 -4 0
-6 5 -11 0
-9 4 10 0
-10 -3 6 0
-7 -10 -3 0
-8 -2 4 0
3 -1 -6 0
-12 -10 -11 0
-1 4 9 0
11 6 12 0
-7 -1 5 0
-1 -11 4 0
7 -4 11 0
-11 -3 -4 0
-9 -12 -2 0
1 -6 12 0
-12 11 -3 0
7 -10 6 0
-12 9 -3 0
-8 -5 9 0
-5 -7 -3 0
-11 -8 -6 0
5 10 -11 0
